
Gurobi 9.5.0 (linux64) logging started Fri Dec  8 09:45:30 2023

Set parameter LogFile to value "/lustre1/scratch/348/vsc34888/JointResearch/05.Models/06.Benchmarking/F.Representative_days_based_on_Line_Benefit_NN_OC_fy_1/RTS24_mod1_ByStages_nc400/openStarNet_RTS24_mod1_ByStages_nc400.log"
Set parameter Method to value 2
Set parameter MIPFocus to value 1
Set parameter Presolve to value 2
Set parameter RINS to value 100
Set parameter MIPGap to value 0.01
Set parameter Threads to value 36
Set parameter TimeLimit to value 259200
Set parameter IterationLimit to value 760000000
Gurobi Optimizer version 9.5.0 build v9.5.0rc5 (linux64)
Thread count: 36 physical cores, 36 logical processors, using up to 36 threads
Optimize a model with 142358 rows, 96092 columns and 388128 nonzeros
Model fingerprint: 0xc39be7fe
Variable types: 96071 continuous, 21 integer (21 binary)
Coefficient statistics:
  Matrix range     [8e-04, 8e+02]
  Objective range  [1e+00, 1e+00]
  Bounds range     [3e-05, 3e+00]
  RHS range        [3e-05, 3e+00]
Presolve removed 84789 rows and 48725 columns
Presolve time: 0.59s
Presolved: 57569 rows, 47367 columns, 207957 nonzeros
Variable types: 47346 continuous, 21 integer (21 binary)
Root relaxation presolved: 57569 rows, 47367 columns, 207957 nonzeros

Root barrier log...

Ordering time: 0.01s

Barrier statistics:
 Dense cols : 21
 AA' NZ     : 3.862e+05
 Factor NZ  : 1.125e+06 (roughly 50 MB of memory)
 Factor Ops : 2.577e+07 (less than 1 second per iteration)
 Threads    : 35

                  Objective                Residual
Iter       Primal          Dual         Primal    Dual     Compl     Time
   0   6.75423454e+05 -2.95588917e+08  5.40e+00 1.32e+02  6.27e+03     1s
   1   1.10025870e+05 -7.74320899e+07  7.34e-01 1.74e-08  8.87e+02     1s
   2   4.35779067e+04 -4.15341484e+07  1.85e-01 7.14e-09  3.62e+02     1s
   3   2.28994403e+04 -4.68059354e+06  9.11e-03 1.32e-09  3.57e+01     1s
   4   1.75698626e+04 -4.54789005e+05  9.77e-04 2.30e-10  3.53e+00     1s
   5   7.83851722e+03 -1.05014105e+05  5.06e-05 5.63e-11  8.41e-01     1s
   6   2.75546894e+03 -2.46695597e+04  1.05e-05 1.73e-11  2.04e-01     1s
   7   9.29406935e+02 -6.77759973e+03  2.20e-06 5.25e-12  5.75e-02     1s
   8   3.39059985e+02 -1.26538861e+03  2.42e-07 1.05e-12  1.20e-02     1s
   9   2.15580888e+02 -5.28198831e+02  1.11e-07 4.55e-13  5.54e-03     1s
  10   1.49219819e+02 -2.46732250e+02  5.79e-08 9.09e-13  2.95e-03     1s
  11   1.00165213e+02 -5.71505553e+01  2.46e-08 2.27e-13  1.17e-03     1s
  12   7.97235781e+01  1.01110273e+01  1.37e-08 9.09e-13  5.19e-04     1s
  13   7.08430819e+01  2.33074890e+01  9.28e-09 9.09e-13  3.54e-04     1s
  14   6.67660932e+01  3.18005321e+01  7.25e-09 4.55e-13  2.61e-04     1s
  15   6.14000013e+01  3.70781400e+01  4.61e-09 4.55e-13  1.81e-04     1s
  16   5.96587377e+01  4.02067665e+01  3.65e-09 4.55e-13  1.45e-04     1s
  17   5.76067963e+01  4.26454793e+01  2.77e-09 4.55e-13  1.12e-04     1s
  18   5.64939124e+01  4.53951307e+01  2.27e-09 9.09e-13  8.27e-05     1s
  19   5.51422240e+01  4.69296589e+01  1.54e-09 9.09e-13  6.12e-05     1s
  20   5.44219822e+01  4.89289915e+01  1.19e-09 9.09e-13  4.09e-05     2s
  21   5.39150532e+01  4.95272426e+01  8.83e-10 4.55e-13  3.27e-05     2s
  22   5.33989451e+01  5.00446190e+01  5.88e-10 9.09e-13  2.50e-05     2s
  23   5.31380510e+01  5.07567194e+01  4.24e-10 4.55e-13  1.78e-05     2s
  24   5.29312188e+01  5.11724329e+01  3.05e-10 4.55e-13  1.31e-05     2s
  25   5.28593322e+01  5.17074483e+01  2.66e-10 4.55e-13  8.59e-06     2s
  26   5.27302845e+01  5.18114659e+01  1.92e-10 4.55e-13  6.85e-06     2s
  27   5.26361841e+01  5.20417404e+01  1.35e-10 4.55e-13  4.43e-06     2s
  28   5.25294743e+01  5.21445144e+01  7.22e-11 2.27e-13  2.87e-06     2s
  29   5.25004678e+01  5.22748150e+01  5.69e-11 4.55e-13  1.68e-06     2s
  30   5.24692653e+01  5.23279287e+01  4.04e-11 4.55e-13  1.05e-06     2s
  31   5.24536780e+01  5.23728450e+01  3.52e-11 4.55e-13  6.03e-07     2s
  32   5.24251359e+01  5.23947616e+01  4.86e-11 4.55e-13  2.26e-07     2s
  33   5.24125634e+01  5.24023172e+01  8.61e-11 8.90e-13  7.64e-08     2s
  34   5.24102373e+01  5.24043882e+01  8.86e-11 1.31e-12  4.36e-08     2s
  35   5.24086065e+01  5.24051502e+01  5.15e-11 3.03e-12  2.58e-08     2s
  36   5.24082915e+01  5.24055000e+01  4.72e-11 7.40e-12  2.08e-08     2s
  37   5.24077905e+01  5.24058978e+01  6.05e-11 1.76e-12  1.41e-08     2s
  38   5.24074895e+01  5.24061340e+01  4.79e-11 3.67e-12  1.01e-08     2s
  39   5.24068478e+01  5.24063405e+01  8.56e-11 5.17e-12  3.78e-09     2s
  40   5.24068176e+01  5.24065730e+01  6.70e-11 5.17e-10  1.82e-09     2s
  41   5.24068085e+01  5.24066611e+01  1.40e-09 5.45e-10  1.10e-09     2s
  42   5.24067888e+01  5.24067815e+01  2.16e-10 4.31e-10  5.43e-11     2s
  43   5.24067885e+01  5.24067884e+01  1.44e-10 1.27e-12  1.31e-13     2s

Barrier solved model in 43 iterations and 2.13 seconds (1.84 work units)
Optimal objective 5.24067885e+01


Root relaxation: objective 5.240679e+01, 8230 iterations, 1.90 seconds (1.59 work units)

    Nodes    |    Current Node    |     Objective Bounds      |     Work
 Expl Unexpl |  Obj  Depth IntInf | Incumbent    BestBd   Gap | It/Node Time

     0     0   52.40679    0   16          -   52.40679      -     -    4s
H    0     0                      94.6435130   52.40679  44.6%     -    4s
     0     0   52.97446    0   10   94.64351   52.97446  44.0%     -    8s
H    0     0                      91.3635375   52.97446  42.0%     -    9s
     0     0   52.98377    0   10   91.36354   52.98377  42.0%     -    9s
H    0     0                      85.8667136   53.17225  38.1%     -   11s
     0     0   53.17225    0   11   85.86671   53.17225  38.1%     -   11s
     0     0   53.19327    0    9   85.86671   53.19327  38.1%     -   13s
     0     0   53.39900    0   13   85.86671   53.39900  37.8%     -   15s
H    0     0                      83.5645715   53.41102  36.1%     -   17s
     0     0   53.41102    0   13   83.56457   53.41102  36.1%     -   17s
     0     0   53.48877    0   11   83.56457   53.48877  36.0%     -   18s
     0     0   53.49106    0   12   83.56457   53.49106  36.0%     -   19s
     0     0   53.49129    0   12   83.56457   53.49129  36.0%     -   19s
     0     0   53.49129    0   12   83.56457   53.49129  36.0%     -   19s
     0     0   53.51703    0   11   83.56457   53.51703  36.0%     -   23s
H    0     0                      69.9044921   53.51703  23.4%     -   79s
     0     2   53.51703    0   11   69.90449   53.51703  23.4%     -   81s
     3     8   54.09743    2   14   69.90449   53.56710  23.4%  3204   85s
    15    32   54.53648    4   15   69.90449   54.38797  22.2%  2959   91s
H   29    32                      69.7433734   54.54426  21.8%  3202   91s
    31    58   55.77545    5   15   69.74337   54.54426  21.8%  3345   95s
    99   122   57.58525    7   13   69.74337   56.25585  19.3%  3141  155s
H  108   122                      69.3318231   56.25585  18.9%  3100  155s
   135   142   60.12050    8   13   69.33182   56.25585  18.9%  2937  234s
H  141   142                      69.2592122   56.25585  18.8%  2967  234s
   171   160   61.54031    8   13   69.25921   56.25585  18.8%  2788  238s
   207   175   64.38103    9   12   69.25921   56.25585  18.8%  2676  242s
   258   192     cutoff    9        69.25921   56.25585  18.8%  2539  267s
   301   216   66.66125   10   11   69.25921   56.25585  18.8%  2506  271s
   355   216   69.21801   11   10   69.25921   56.25585  18.8%  2402  275s
   416   216     cutoff   12        69.25921   56.25585  18.8%  2297  280s
   487   231     cutoff   11        69.25921   56.25585  18.8%  2244  285s
   554   230     cutoff   14        69.25921   56.26874  18.8%  2204  290s
   633   235   65.34629    7   11   69.25921   56.26874  18.8%  2161  296s
   713   248   68.35460    8   11   69.25921   56.26874  18.8%  2138  300s
   806   242     cutoff    9        69.25921   56.26874  18.8%  2089  305s
   908   245     cutoff    8        69.25921   56.26874  18.8%  2024  313s
  1011   263   69.23675    8   11   69.25921   56.26874  18.8%  1975  317s
  1125   266     cutoff    9        69.25921   57.17224  17.5%  1921  322s
  1275   243     cutoff    8        69.25921   57.54686  16.9%  1856  337s
  1354   216     cutoff    8        69.25921   57.54686  16.9%  1847  342s
  1518   180   64.04221   10   11   69.25921   57.54686  16.9%  1794  348s
  1685   175   66.43274   11   10   69.25921   57.54686  16.9%  1750  352s
  1850   127   68.68583   13    8   69.25921   57.54686  16.9%  1699  357s
  2037    76     cutoff   10        69.25921   59.15175  14.6%  1637  361s
  2185    24   60.15941    8   11   69.25921   59.15175  14.6%  1588  365s
  2340    51   63.95761   10   11   69.25921   59.15175  14.6%  1552  372s
  2399    42   67.61185   11   10   69.25921   59.15175  14.6%  1557  406s
  2480     7     cutoff   12        69.25921   64.64727  6.66%  1540  410s

Cutting planes:
  Implied bound: 183
  MIR: 1436
  Relax-and-lift: 215

Explored 2596 nodes (3941782 simplex iterations) in 412.53 seconds (739.11 work units)
Thread count was 36 (of 36 available processors)

Solution count 8: 69.2592 69.3318 69.7434 ... 94.6435

Optimal solution found (tolerance 1.00e-02)
Best objective 6.925921223368e+01, best bound 6.925921223368e+01, gap 0.0000%

Gurobi 9.5.0 (linux64) logging started Fri Dec  8 09:53:27 2023

Set parameter LogFile to value "/lustre1/scratch/348/vsc34888/JointResearch/05.Models/06.Benchmarking/F.Representative_days_based_on_Line_Benefit_NN_OC_fy_1/RTS24_mod1_ByStages_nc400/openStarNet_RTS24_mod1_ByStages_nc400.log"
Set parameter Method to value 2
Set parameter MIPFocus to value 1
Set parameter Presolve to value 2
Set parameter RINS to value 100
Set parameter MIPGap to value 0.01
Set parameter Threads to value 36
Set parameter TimeLimit to value 259200
Set parameter IterationLimit to value 760000000
No parameters matching 'relax_integrality' found
Gurobi Optimizer version 9.5.0 build v9.5.0rc5 (linux64)
Thread count: 36 physical cores, 36 logical processors, using up to 36 threads
Optimize a model with 142358 rows, 96071 columns and 354423 nonzeros
Model fingerprint: 0x2bdbbff9
Coefficient statistics:
  Matrix range     [8e-04, 8e+02]
  Objective range  [1e+00, 1e+00]
  Bounds range     [3e-05, 3e+00]
  RHS range        [3e-05, 2e+01]
Presolve removed 119301 rows and 54741 columns
Presolve time: 0.19s
Presolved: 23057 rows, 42097 columns, 101541 nonzeros

Ordering time: 0.00s

Barrier statistics:
 AA' NZ     : 5.600e+04
 Factor NZ  : 2.012e+05 (roughly 22 MB of memory)
 Factor Ops : 2.517e+06 (less than 1 second per iteration)
 Threads    : 36

                  Objective                Residual
Iter       Primal          Dual         Primal    Dual     Compl     Time
   0   1.57467454e+07 -1.50106307e+08  1.45e+02 9.78e+01  1.00e+05     0s
   1   1.06867329e+06 -1.41352802e+08  9.14e+00 2.08e+02  7.95e+03     0s
   2   1.12715244e+05 -5.45650885e+07  8.39e-01 1.05e+01  1.15e+03     0s
   3   3.71076983e+04 -1.34702051e+07  1.39e-01 1.19e+00  2.23e+02     0s
   4   2.41295243e+04 -2.50653340e+06  1.12e-02 1.06e-01  3.60e+01     0s
   5   1.90302009e+04 -7.40241626e+05  5.88e-04 1.47e-02  1.05e+01     0s
   6   1.22277694e+04 -1.50942729e+05  2.44e-05 1.66e-03  2.25e+00     0s
   7   5.18948730e+03 -3.36002997e+04  3.06e-06 7.11e-13  5.35e-01     0s
   8   2.00470182e+03 -8.81905179e+03  8.85e-07 4.55e-13  1.49e-01     0s
   9   4.80098559e+02 -1.20943240e+03  5.69e-08 4.55e-13  2.33e-02     0s
  10   2.89669534e+02 -4.22351463e+02  2.40e-08 9.09e-13  9.82e-03     0s
  11   1.44149479e+02 -9.61401457e+01  5.92e-09 4.55e-13  3.31e-03     0s
  12   8.93553406e+01  4.08805769e+01  1.18e-09 9.09e-13  6.68e-04     0s
  13   7.59931444e+01  5.84156125e+01  3.61e-10 9.09e-13  2.42e-04     0s
  14   7.15379943e+01  6.52611389e+01  1.16e-10 9.09e-13  8.65e-05     0s
  15   7.01175477e+01  6.74525352e+01  4.97e-11 9.09e-13  3.67e-05     0s
  16   6.96503434e+01  6.86233459e+01  4.88e-11 4.55e-13  1.42e-05     0s
  17   6.93818951e+01  6.90241092e+01  9.20e-11 4.55e-13  4.93e-06     0s
  18   6.92835047e+01  6.92160327e+01  5.14e-11 2.27e-13  9.30e-07     0s
  19   6.92658196e+01  6.92513425e+01  2.31e-10 9.09e-13  2.00e-07     0s
  20   6.92595151e+01  6.92590170e+01  3.31e-10 4.55e-13  6.87e-09     1s
  21   6.92592137e+01  6.92592088e+01  5.00e-10 2.27e-13  6.79e-11     1s
  22   6.92592122e+01  6.92592122e+01  9.36e-11 2.27e-13  6.79e-14     1s
  23   6.92592122e+01  6.92592122e+01  1.64e-13 9.09e-13  1.26e-17     1s

Barrier solved model in 23 iterations and 0.53 seconds (0.48 work units)
Optimal objective 6.92592122e+01

Crossover log...

    5210 DPushes remaining with DInf 0.0000000e+00                 1s
       0 DPushes remaining with DInf 0.0000000e+00                 1s

    1322 PPushes remaining with PInf 0.0000000e+00                 1s
       0 PPushes remaining with PInf 0.0000000e+00                 1s

  Push phase complete: Pinf 0.0000000e+00, Dinf 2.0773575e-13      1s

Iteration    Objective       Primal Inf.    Dual Inf.      Time
    1457    6.9259212e+01   0.000000e+00   0.000000e+00      1s

Use crossover to convert LP symmetric solution to basic solution...
Crossover log...

       0 DPushes remaining with DInf 0.0000000e+00                 1s

    1009 PPushes remaining with PInf 0.0000000e+00                 1s
       0 PPushes remaining with PInf 0.0000000e+00                 1s

  Push phase complete: Pinf 0.0000000e+00, Dinf 1.5793164e-13      1s

Iteration    Objective       Primal Inf.    Dual Inf.      Time
    2477    6.9259212e+01   0.000000e+00   0.000000e+00      1s

Solved in 2477 iterations and 0.82 seconds (0.64 work units)
Optimal objective  6.925921223e+01
